# Solution for model r10_t9_m2_3 Batch Number: 1
# Finished Task: 9 / 9
# Makespan: 438.0, Total Distance: 96.0, Total Time: 0.8667
# R O S F Batch
0 0 16 0.0 0.0 -1
1 1 10 0.0 0.0 -1
2 2 13 0.0 0.0 -1
3 3 -1 0.0 0.0 -1
4 4 17 0.0 0.0 -1
5 5 12 0.0 0.0 -1
6 6 11 0.0 0.0 -1
7 7 14 0.0 0.0 -1
8 8 15 0.0 0.0 -1
9 9 -1 0.0 0.0 -1
10 1 -1 367.0 399.0 0
11 6 -1 188.0 223.0 0
12 5 -1 377.0 414.0 0
13 2 -1 379.0 403.0 0
14 7 -1 346.0 367.0 0
15 8 -1 123.0 162.0 0
16 0 18 158.0 195.0 0
17 4 -1 311.0 331.0 0
18 0 -1 403.0 438.0 0
